750
[80,85,86,104,112,117,155,156,172,173,185,211,217,224,232,242,255,270,288,296,299,341,350,368,375,401,405,407,410,419,424,425,435,439,445,452,476,478,485,489,493,524,549,555,558,571,597]
[1,1,1,1,1,1,1,1,1,1,1,1,1,1,1,1,1,1,1,2,1,1,1,1,1,1,2,1,1,1,1,1,1,1,1,1,1,1,1,2,1,1,1,1,1,1,1]
